     Program PWSCF v.6.6 starts on  2Mar2021 at 10:22:17

     R & G space division:  proc/nbgrp/npool/nimage =      20
     Fft bands division:     nmany     =       1
     Reading input from bwse2.relax.aa.in

     Current dimensions of program PWSCF are:
     Max number of different atomic species (ntypx) = 10
     Max number of k-points (npk) =  40000
     Max angular momentum in pseudopotentials (lmaxx) =  3

     IMPORTANT: XC functional enforced from input :
     Exchange-correlation= VDW-DF-CX
                           (   1   4  27   0   1   0   0)
     Any further DFT definition will be discarded
     Please, verify this is what you really want

     Subspace diagonalization in iterative solution of the eigenvalue problem:
     a serial algorithm will be used

     bravais-lattice index     =            4
     lattice parameter (alat)  =      27.3884  a.u.
     unit-cell volume          =   39283.8561 (a.u.)^3
     number of atoms/cell      =          114
     number of atomic types    =            2
     number of electrons       =       988.00
     number of Kohn-Sham states=          494
     kinetic-energy cutoff     =      30.0000  Ry
     charge density cutoff     =     120.0000  Ry
     convergence threshold     =      1.0E-06
     mixing beta               =       0.7000
     number of iterations used =            8  plain     mixing
     Exchange-correlation= VDW-DF-CX
                           (   1   4  27   0   1   0   0)
     nstep                     =           50

     celldm(1)=  27.388441  celldm(2)=   0.000000  celldm(3)=   2.207911
     celldm(4)=   0.000000  celldm(5)=   0.000000  celldm(6)=   0.000000

     crystal axes: (cart. coord. in units of alat)
               a(1) = (   1.000000   0.000000   0.000000 )
               a(2) = (  -0.500000   0.866025   0.000000 )
               a(3) = (   0.000000   0.000000   2.207911 )

     reciprocal axes: (cart. coord. in units 2 pi/alat)
               b(1) = (  1.000000  0.577350 -0.000000 )
               b(2) = (  0.000000  1.154701  0.000000 )
               b(3) = (  0.000000 -0.000000  0.452917 )

     PseudoPot. # 1 for W  read from file:
     ../pseudo/W_pbe_v1.2.uspp.F.UPF
     MD5 check sum: 9c083fa34c2a2ea0f02f1f893e16e1c8
     Pseudo is Ultrasoft + core correction, Zval = 14.0
     Generated by new atomic code, or converted to UPF format
     Using radial grid of  923 points,  8 beta functions with:
                l(1) =   0
                l(2) =   0
                l(3) =   0
                l(4) =   1
                l(5) =   1
                l(6) =   2
                l(7) =   2
                l(8) =   3
     Q(r) pseudized with  6 coefficients,  rinner =    1.350   1.350   1.350
                                                       1.350   1.350   1.350
                                                       1.350

     PseudoPot. # 2 for Se read from file:
     ../pseudo/Se_pbe_v1.uspp.F.UPF
     MD5 check sum: 1b3568f3a8ae88f9a2a0ad0698632c85
     Pseudo is Ultrasoft + core correction, Zval =  6.0
     Generated by new atomic code, or converted to UPF format
     Using radial grid of  877 points,  6 beta functions with:
                l(1) =   0
                l(2) =   0
                l(3) =   1
                l(4) =   1
                l(5) =   2
                l(6) =   2
     Q(r) pseudized with  8 coefficients,  rinner =    1.300   1.300   1.300
                                                       1.300   1.300

     atomic species   valence    mass     pseudopotential
        W             14.00   183.84000     W ( 1.00)
        Se             6.00    78.96000     Se( 1.00)

      3 Sym. Ops. (no inversion) found

                                    s                        frac. trans.

      isym =  1     identity

 cryst.   s( 1) = (     1          0          0      )
                  (     0          1          0      )
                  (     0          0          1      )

 cart.    s( 1) = (  1.0000000  0.0000000  0.0000000 )
                  (  0.0000000  1.0000000  0.0000000 )
                  (  0.0000000  0.0000000  1.0000000 )

      isym =  2     120 deg rotation - cryst. axis [0,0,1]

[...]

      isym =  3     120 deg rotation - cryst. axis [0,0,-1]

 cryst.   s( 3) = (    -1         -1          0      )
                  (     1          0          0      )
                  (     0          0          1      )

 cart.    s( 3) = ( -0.5000000  0.8660254  0.0000000 )
                  ( -0.8660254 -0.5000000  0.0000000 )
                  (  0.0000000  0.0000000  1.0000000 )

     point group C_3 (3)
     there are  3 classes
     the character table:

       E     C3    C3^2
A      1.00  1.00  1.00
E      1.00 -0.50 -0.50
E*     1.00 -0.50 -0.50
     imaginary part
A      0.00  0.00  0.00
E      0.00  0.87 -0.87
E*     0.00 -0.87  0.87

     the symmetry operations in each class and the name of the first element:

     E        1
          identity
     C3       2
          120 deg rotation - cryst. axis [0,0,1]
     C3^2     3
          120 deg rotation - cryst. axis [0,0,-1]

   Cartesian axes

     site n.     atom                  positions (alat units)
         1           W   tau(   1) = (  -0.2894730   0.7748648   0.0000000  )
         2           W   tau(   2) = (  -0.2631570   0.5469634   0.0000000  )
         3           W   tau(   3) = (  -0.0789470   0.6837042   0.0000000  )
         4           W   tau(   4) = (   0.1052631   0.8204451   0.0000000  )
         5           W   tau(   5) = (  -0.0526310   0.4558028   0.0000000  )
         6           W   tau(   6) = (   0.1315789   0.5925436   0.0000000  )
         7           W   tau(   7) = (   0.3157894   0.7292845   0.0000000  )
         8           W   tau(   8) = (  -0.0263150   0.2279014   0.0000000  )
         9           W   tau(   9) = (   0.1578947   0.3646422   0.0000000  )
        10           W   tau(  10) = (   0.3421052   0.5013831   0.0000000  )
        11           W   tau(  11) = (   0.5263157   0.6381239   0.0000000  )
        12           W   tau(  12) = (   0.0000000   0.0000000   0.0000000  )
        13           W   tau(  13) = (   0.1842105   0.1367408   0.0000000  )
        14           W   tau(  14) = (   0.3684210   0.2734817   0.0000000  )
        15           W   tau(  15) = (   0.5526315   0.4102225   0.0000000  )
        16           W   tau(  16) = (   0.3947368   0.0455802   0.0000000  )
        17           W   tau(  17) = (   0.5789473   0.1823211   0.0000000  )
        18           W   tau(  18) = (   0.7631578   0.3190619   0.0000000  )
        19           W   tau(  19) = (   0.7894736   0.0911605   0.0000000  )
        20           W   tau(  20) = (   0.8157894   0.1367408   0.4240467  )
        21           W   tau(  21) = (   0.6052631   0.0455802   0.4240467  )
        22           W   tau(  22) = (   0.6315789   0.2734817   0.4240467  )
        23           W   tau(  23) = (   0.4210526   0.1823211   0.4240467  )
        24           W   tau(  24) = (   0.2105263   0.0911605   0.4240467  )
        25           W   tau(  25) = (   0.0000000   0.0000000   0.4240467  )
        26           W   tau(  26) = (   0.6578947   0.5013831   0.4240467  )
        27           W   tau(  27) = (   0.4473684   0.4102225   0.4240467  )
        28           W   tau(  28) = (   0.2368421   0.3190619   0.4240467  )
        29           W   tau(  29) = (   0.0263157   0.2279014   0.4240467  )
        30           W   tau(  30) = (   0.4736842   0.6381239   0.4240467  )
        31           W   tau(  31) = (   0.2631578   0.5469634   0.4240467  )
        32           W   tau(  32) = (   0.0526315   0.4558028   0.4240467  )
        33           W   tau(  33) = (  -0.1578940   0.3646422   0.4240467  )
        34           W   tau(  34) = (   0.2894736   0.7748648   0.4240467  )
        35           W   tau(  35) = (   0.0789473   0.6837042   0.4240467  )
        36           W   tau(  36) = (  -0.1315780   0.5925436   0.4240467  )
        37           W   tau(  37) = (  -0.1052630   0.8204451   0.4240467  )
        38           W   tau(  38) = (  -0.3157890   0.7292845   0.4240467  )
        39           Se  tau(  39) = (  -0.3421050   0.6533174   0.1158264  )
        40           Se  tau(  40) = (  -0.1578940   0.7900582   0.1158264  )
        41           Se  tau(  41) = (  -0.1315780   0.5621568   0.1158264  )
        42           Se  tau(  42) = (   0.0526315   0.6988976   0.1158264  )
        43           Se  tau(  43) = (   0.2368421   0.8356385   0.1158264  )
        44           Se  tau(  44) = (  -0.1052630   0.3342554   0.1158264  )
        45           Se  tau(  45) = (   0.0789473   0.4709962   0.1158264  )
        46           Se  tau(  46) = (   0.2631578   0.6077371   0.1158264  )
        47           Se  tau(  47) = (   0.4473684   0.7444779   0.1158264  )
        48           Se  tau(  48) = (   0.1052631   0.2430948   0.1158264  )
        49           Se  tau(  49) = (   0.2894736   0.3798357   0.1158264  )
        50           Se  tau(  50) = (   0.4736842   0.5165765   0.1158264  )
        51           Se  tau(  51) = (   0.1315789   0.0151934   0.1158264  )
        52           Se  tau(  52) = (   0.3157894   0.1519342   0.1158264  )
        53           Se  tau(  53) = (   0.5000000   0.2886751   0.1158264  )
        54           Se  tau(  54) = (   0.6842105   0.4254159   0.1158264  )
        55           Se  tau(  55) = (   0.5263157   0.0607737   0.1158264  )
        56           Se  tau(  56) = (   0.7105263   0.1975145   0.1158264  )
        57           Se  tau(  57) = (   0.9210526   0.1063539   0.1158264  )
        58           Se  tau(  58) = (  -0.3421050   0.6533174  -0.1158260  )
        59           Se  tau(  59) = (  -0.1578940   0.7900582  -0.1158260  )
        60           Se  tau(  60) = (  -0.1315780   0.5621568  -0.1158260  )
[...]
       100           Se  tau( 100) = (   0.5000000   0.2886751   0.3082202  )
       101           Se  tau( 101) = (   0.2894736   0.1975145   0.3082202  )
       102           Se  tau( 102) = (   0.0789473   0.1063539   0.3082202  )
       103           Se  tau( 103) = (   0.5263157   0.5165765   0.3082202  )
       104           Se  tau( 104) = (   0.3157894   0.4254159   0.3082202  )
       105           Se  tau( 105) = (   0.1052631   0.3342554   0.3082202  )
       106           Se  tau( 106) = (  -0.1052630   0.2430948   0.3082202  )
       107           Se  tau( 107) = (   0.5526315   0.7444779   0.3082202  )
       108           Se  tau( 108) = (   0.3421052   0.6533174   0.3082202  )
       109           Se  tau( 109) = (   0.1315789   0.5621568   0.3082202  )
       110           Se  tau( 110) = (  -0.0789470   0.4709962   0.3082202  )
       111           Se  tau( 111) = (   0.1578947   0.7900582   0.3082202  )
       112           Se  tau( 112) = (  -0.0526310   0.6988976   0.3082202  )
       113           Se  tau( 113) = (  -0.2631570   0.6077371   0.3082202  )
       114           Se  tau( 114) = (  -0.2368420   0.8356385   0.3082202  )

   Crystallographic axes

     site n.     atom                  positions (cryst. coord.)
[...]
     atom    6 type  1   force =     0.00000000    0.00000000    0.00000000
     atom    7 type  1   force =     0.00000000    0.00000000    0.00000000
     atom    8 type  1   force =     0.00000000    0.00000000    0.00000000
     atom    9 type  1   force =     0.00000000    0.00000000    0.00000000
     atom   10 type  1   force =     0.00000000    0.00000000    0.00000000
     atom   11 type  1   force =     0.00000000    0.00000000    0.00000000
     atom   12 type  1   force =     0.00000000    0.00000000    0.00000000
     atom   13 type  1   force =     0.00000000    0.00000000    0.00000000
     atom   14 type  1   force =     0.00000000    0.00000000    0.00000000
     atom   15 type  1   force =     0.00000000    0.00000000    0.00000000
     atom   16 type  1   force =     0.00000000    0.00000000    0.00000000
     atom   17 type  1   force =     0.00000000    0.00000000    0.00000000
     atom   18 type  1   force =     0.00000000    0.00000000    0.00000000
     atom   19 type  1   force =     0.00000000    0.00000000    0.00000000
     atom   20 type  1   force =     0.00000000    0.00000000    0.00000000
     atom   21 type  1   force =     0.00000000    0.00000000    0.00000000
     atom   22 type  1   force =     0.00000000    0.00000000    0.00000000
     atom   23 type  1   force =     0.00000000    0.00000000    0.00000000
     atom   24 type  1   force =     0.00000000    0.00000000    0.00000000
     atom   25 type  1   force =     0.00000000    0.00000000    0.00000000
     atom   26 type  1   force =     0.00000000    0.00000000    0.00000000
     atom   27 type  1   force =     0.00000000    0.00000000    0.00000000
     atom   28 type  1   force =     0.00000000    0.00000000    0.00000000
     atom   29 type  1   force =     0.00000000    0.00000000    0.00000000
     atom   30 type  1   force =     0.00000000    0.00000000    0.00000000
     atom   31 type  1   force =     0.00000000    0.00000000    0.00000000
     atom   32 type  1   force =     0.00000000    0.00000000    0.00000000
     atom   33 type  1   force =     0.00000000    0.00000000    0.00000000
     atom   34 type  1   force =     0.00000000    0.00000000    0.00000000
     atom   35 type  1   force =     0.00000000    0.00000000    0.00000000
     atom   36 type  1   force =     0.00000000    0.00000000    0.00000000
     atom   37 type  1   force =     0.00000000    0.00000000    0.00000000
     atom   38 type  1   force =     0.00000000    0.00000000    0.00000000
     atom   39 type  2   force =     0.00000000    0.00000000    0.00000000
     atom   40 type  2   force =     0.00000000    0.00000000    0.00000000
     atom   41 type  2   force =     0.00000000    0.00000000    0.00000000
     atom   42 type  2   force =     0.00000000    0.00000000    0.00000000
     atom   43 type  2   force =     0.00000000    0.00000000    0.00000000
     atom   44 type  2   force =     0.00000000    0.00000000    0.00000000
     atom   45 type  2   force =     0.00000000    0.00000000    0.00000000
     atom   46 type  2   force =     0.00000000    0.00000000    0.00000000
     atom   47 type  2   force =     0.00000000    0.00000000    0.00000000
     atom   48 type  2   force =     0.00000000    0.00000000    0.00000000
     atom   49 type  2   force =     0.00000000    0.00000000    0.00000000
     atom   50 type  2   force =     0.00000000    0.00000000    0.00000000
     atom   51 type  2   force =     0.00000000    0.00000000    0.00000000
     atom   52 type  2   force =     0.00000000    0.00000000    0.00000000
     atom   53 type  2   force =     0.00000000    0.00000000    0.00000000
     atom   54 type  2   force =     0.00000000    0.00000000    0.00000000
     atom   55 type  2   force =     0.00000000    0.00000000    0.00000000
     atom   56 type  2   force =     0.00000000    0.00000000    0.00000000
     atom   57 type  2   force =     0.00000000    0.00000000    0.00000000
     atom   58 type  2   force =     0.00000000    0.00000000    0.00000000
     atom   59 type  2   force =     0.00000000    0.00000000    0.00000000
     atom   60 type  2   force =     0.00000000    0.00000000    0.00000000
[...]
     atom  100 type  2   force =     0.00000000    0.00000000    0.00000000
     atom  101 type  2   force =     0.00000000    0.00000000    0.00000000
     atom  102 type  2   force =     0.00000000    0.00000000    0.00000000
     atom  103 type  2   force =     0.00000000    0.00000000    0.00000000
     atom  104 type  2   force =     0.00000000    0.00000000    0.00000000
     atom  105 type  2   force =     0.00000000    0.00000000    0.00000000
     atom  106 type  2   force =     0.00000000    0.00000000    0.00000000
     atom  107 type  2   force =     0.00000000    0.00000000    0.00000000
     atom  108 type  2   force =     0.00000000    0.00000000    0.00000000
     atom  109 type  2   force =     0.00000000    0.00000000    0.00000000
     atom  110 type  2   force =     0.00000000    0.00000000    0.00000000
     atom  111 type  2   force =     0.00000000    0.00000000    0.00000000
     atom  112 type  2   force =     0.00000000    0.00000000    0.00000000
     atom  113 type  2   force =     0.00000000    0.00000000    0.00000000
     atom  114 type  2   force =     0.00000000    0.00000000    0.00000000
     The SCF correction term to forces
     atom    1 type  1   force =    -0.00005871    0.00001749    0.00003564
     atom    2 type  1   force =    -0.00003322    0.00001602    0.00004896
     atom    3 type  1   force =    -0.00002059    0.00001603    0.00005096
     atom    4 type  1   force =     0.00003058    0.00002080    0.00004887
     atom    5 type  1   force =    -0.00000366   -0.00002579    0.00005091
     atom    6 type  1   force =     0.00002421    0.00000981    0.00005088
     atom    7 type  1   force =     0.00004451    0.00004201    0.00003556
     atom    8 type  1   force =     0.00001410   -0.00005951    0.00003569
     atom    9 type  1   force =     0.00000261   -0.00003685    0.00004888
     atom   10 type  1   force =     0.00001675    0.00001169    0.00005444
     atom   11 type  1   force =     0.00000247    0.00004946    0.00003386
     atom   12 type  1   force =     0.00000001   -0.00000006    0.00001443
     atom   13 type  1   force =    -0.00004402   -0.00002259    0.00003371
     atom   14 type  1   force =    -0.00001278   -0.00000520    0.00006545
     atom   15 type  1   force =     0.00000203    0.00001373    0.00006558
     atom   16 type  1   force =    -0.00001848    0.00000863    0.00005451
     atom   17 type  1   force =     0.00001077   -0.00000854    0.00006560
     atom   18 type  1   force =     0.00000180   -0.00002028    0.00005448
     atom   19 type  1   force =     0.00004161   -0.00002687    0.00003384
     atom   20 type  1   force =     0.00000320    0.00001811   -0.00007021
     atom   21 type  1   force =    -0.00000968   -0.00002715   -0.00009276
     atom   22 type  1   force =     0.00002464    0.00000511   -0.00009851
     atom   23 type  1   force =    -0.00000769   -0.00002363   -0.00009850
     atom   24 type  1   force =     0.00001381   -0.00001174   -0.00006975
     atom   25 type  1   force =    -0.00000006    0.00000002   -0.00005426
     atom   26 type  1   force =     0.00002823    0.00000536   -0.00009284
     atom   27 type  1   force =    -0.00001651    0.00001874   -0.00009862
     atom   28 type  1   force =    -0.00001887    0.00002157   -0.00009310
     atom   29 type  1   force =    -0.00001261    0.00002674   -0.00007135
     atom   30 type  1   force =    -0.00001722   -0.00000634   -0.00007022
     atom   31 type  1   force =    -0.00002365    0.00000490   -0.00009371
     atom   32 type  1   force =    -0.00000965    0.00001856   -0.00009945
     atom   33 type  1   force =     0.00001594    0.00001800   -0.00009394
     atom   34 type  1   force =    -0.00001671   -0.00002443   -0.00007107
     atom   35 type  1   force =    -0.00001141   -0.00001789   -0.00009942
     atom   36 type  1   force =     0.00002097   -0.00000080   -0.00009917
     atom   37 type  1   force =     0.00000772   -0.00002278   -0.00009407
     atom   38 type  1   force =     0.00002941   -0.00000234   -0.00007122
     atom   39 type  2   force =    -0.00000548    0.00000517    0.00000032
     atom   40 type  2   force =    -0.00000847    0.00000368    0.00001343
     atom   41 type  2   force =    -0.00000935    0.00000017    0.00002052
     atom   42 type  2   force =     0.00000483    0.00000799    0.00002050
     atom   43 type  2   force =     0.00000718    0.00000217    0.00000035
     atom   44 type  2   force =     0.00000102   -0.00000915    0.00001340
     atom   45 type  2   force =     0.00000452   -0.00000819    0.00002051
     atom   46 type  2   force =     0.00000741    0.00000548    0.00001345
     atom   47 type  2   force =     0.00000432    0.00001290   -0.00001914
     atom   48 type  2   force =    -0.00000173   -0.00000731    0.00000033
     atom   49 type  2   force =     0.00000043   -0.00000462    0.00001826
     atom   50 type  2   force =     0.00000248    0.00000234    0.00001436
     atom   51 type  2   force =    -0.00001332   -0.00000269   -0.00001915
     atom   52 type  2   force =    -0.00000328    0.00000101    0.00001437
     atom   53 type  2   force =    -0.00000000    0.00000002    0.00002276
     atom   54 type  2   force =    -0.00000419    0.00000195    0.00001826
     atom   55 type  2   force =     0.00000377    0.00000269    0.00001826
     atom   56 type  2   force =     0.00000077   -0.00000330    0.00001436
     atom   57 type  2   force =     0.00000901   -0.00001021   -0.00001911
     atom   58 type  2   force =    -0.00001094    0.00001259    0.00002356
     atom   59 type  2   force =    -0.00001552    0.00000418    0.00001502
     atom   60 type  2   force =    -0.00000986    0.00000129    0.00001123
[...]
     atom  100 type  2   force =     0.00000002    0.00000001   -0.00003043
     atom  101 type  2   force =     0.00000040   -0.00000038   -0.00001863
     atom  102 type  2   force =     0.00000520    0.00000448   -0.00001212
     atom  103 type  2   force =    -0.00000050   -0.00000013   -0.00001874
     atom  104 type  2   force =    -0.00000910    0.00000796   -0.00001446
     atom  105 type  2   force =    -0.00000192    0.00001421   -0.00001027
     atom  106 type  2   force =    -0.00000567    0.00001414   -0.00000500
     atom  107 type  2   force =     0.00000127   -0.00000673   -0.00001214
     atom  108 type  2   force =    -0.00000938   -0.00001198   -0.00000498
     atom  109 type  2   force =    -0.00000240   -0.00000044    0.00000242
     atom  110 type  2   force =     0.00000083    0.00000233    0.00000245
     atom  111 type  2   force =    -0.00001138   -0.00000877   -0.00001024
     atom  112 type  2   force =     0.00000158   -0.00000185    0.00000246
     atom  113 type  2   force =     0.00001329   -0.00000545   -0.00001028
     atom  114 type  2   force =     0.00001506   -0.00000212   -0.00000497

     Total force =     0.003207     Total SCF correction =     0.000525
     SCF correction compared to forces is large: reduce conv_thr to get better values

     bfgs converged in  31 scf cycles and  30 bfgs steps
     (criteria: energy <  1.0E-04 Ry, force <  1.0E-03 Ry/Bohr)

     End of BFGS Geometry Optimization

     Final energy   =   -9342.5023939475 Ry

     File ../out/twse2_13.bfgs deleted, as requested
Begin final coordinates

ATOMIC_POSITIONS (alat)
W            -0.2892993376        0.7747272173       -0.0216301072
W            -0.2631175545        0.5472825281       -0.0226117343
W            -0.0786996245        0.6836297352       -0.0218878550
W             0.1055197503        0.8202513751       -0.0226117343
W            -0.0526901994        0.4560542659       -0.0218878550
W             0.1313907239        0.5923665989       -0.0218878550
W             0.3155834187        0.7292028953       -0.0216301072
W            -0.0262826811        0.2281205874       -0.0216301072
W             0.1575986042        0.3645167968       -0.0226117343
W             0.3416707172        0.5012499647       -0.0233090925
W             0.5261103638        0.6381319960       -0.0223304747
W             0.0000000000       -0.0000000000       -0.0209084795
W             0.1843061568        0.1365589257       -0.0223304747
W             0.3685102595        0.2732421469       -0.0242686084
W             0.5523794112        0.4102649755       -0.0242686084
W             0.3950693399        0.0452704945       -0.0233090925
W             0.5791101293        0.1825181776       -0.0242686084
W             0.7632597429        0.3195047408       -0.0233090925
W             0.7895832794        0.0913342784       -0.0223304747
W             0.8152772147        0.1366420407        0.4462995411
W             0.6047342214        0.0457044083        0.4473226900
W             0.6313283690        0.2733399125        0.4483789901
W             0.4210550740        0.1826089600        0.4483789901
W             0.2106968646        0.0916534451        0.4462995411
W             0.0000000000        0.0000000000        0.4450374934
W             0.6580515718        0.5008629736        0.4473226900
W             0.4476164571        0.4100764275        0.4483789901
W             0.2372141068        0.3194578181        0.4473226900
W             0.0262709861        0.2281873715        0.4457040124
W             0.4740258207        0.6377297142        0.4462995411
W             0.2634263626        0.5468130091        0.4466306821
W             0.0527273048        0.4558985213        0.4459717202
W            -0.1581585236        0.3644848134        0.4466306821
W             0.2892482983        0.7746830909        0.4457040124
W             0.0788165006        0.6837393087        0.4459717202
W            -0.1315430053        0.5924127700        0.4459717202
W            -0.1052670390        0.8207528775        0.4466306821
W            -0.3155189844        0.7291802376        0.4457040124
Se           -0.3423879040        0.6528869352        0.0930637134
Se           -0.1570561996        0.7904226493        0.0930513846
Se           -0.1319039738        0.5623540561        0.0934397942
Se            0.0529653157        0.6990812735        0.0934397942
Se            0.2366107586        0.8360987345        0.0930637134
Se           -0.1059975226        0.3347987318        0.0930513846
Se            0.0789394581        0.4706152704        0.0934397942
Se            0.2630545222        0.6068293189        0.0930513846
Se            0.4471081439        0.7437876322        0.0937573047
Se            0.1057773455        0.2430650303        0.0930637134
Se            0.2898306588        0.3790127187        0.0910473838
Se            0.4732147026        0.5156389205        0.0911520012
Se            0.1323068175        0.0153131455        0.0937573047
Se            0.3168361164        0.1519963931        0.0911520012
Se            0.5000000000        0.2886751000        0.0899796861
Se            0.6833192479        0.4255181687        0.0910473838
Se            0.5268498933        0.0614944127        0.0910473838
Se            0.7099490811        0.1983898864        0.0911520012
Se            0.9205849386        0.1069244223        0.0937573047
Se           -0.3422390444        0.6535602475       -0.1371410542
Se           -0.1580660849        0.7894467997       -0.1372085954
Se           -0.1313564804        0.5622750563       -0.1371282436
[...]
Se            0.5000000000        0.2886751000        0.3336023338
Se            0.2904483061        0.1984891886        0.3325004199
Se            0.0795273049        0.1070271946        0.3307728803
Se            0.5266724520        0.5152450354        0.3325004199
Se            0.3169519749        0.4252240759        0.3325463426
Se            0.1063836736        0.3346805463        0.3313699016
Se           -0.1060952067        0.2431217670        0.3312985090
Se            0.5529245878        0.7436389537        0.3307728803
Se            0.3424979493        0.6525832043        0.3312985090
Se            0.1321057535        0.5621998233        0.3311092486
Se           -0.0791731675        0.4705184199        0.3311092486
Se            0.1569662257        0.7908160720        0.3313699016
Se           -0.0529316860        0.6993323569        0.3311092486
Se           -0.2633490993        0.6065540817        0.3313699016
Se           -0.2364025426        0.8363457287        0.3312985090
End final coordinates

     Writing output data file ../out/twse2_13.save/

     General routines

     Parallel routines

   This run was terminated on:   6: 8:52   6Mar2021

   JOB DONE.